(set-logic HORN)
(set-info :source |
    Benchmark: 
    Output by Princess (http://www.philipp.ruemmer.org/princess.shtml)
|)
(declare-heap Heap Addr HeapObject
 defObj
 ((HeapObject 0) (node 0)) (
  (
   (O_Int (getInt Int))
   (O_UInt (getUInt Int))
   (O_Addr (getAddr Addr))
   (O_AddrRange (getAddrRange AddrRange))
   (O_node (getnode node))
   (defObj)
  )
  (
   (node (|node::h| Int) (|node::n| Addr))
  )
))
(declare-fun _Glue9_exp_exp (Addr Int Addr Addr Int Heap Addr HeapObject) Bool)
(declare-fun inv_main_28 (Heap Int Int Addr) Bool)
(declare-fun _Glue0_exp_exp (Addr Int Addr Addr Int Heap Addr HeapObject) Bool)
(declare-fun _Glue14 (Addr Addr Int Heap Addr HeapObject) Bool)
(declare-fun Inv_Heap_exp_exp (Addr Int Addr) Bool)
(declare-fun _Glue6 (Addr Addr Int Heap Addr HeapObject) Bool)
(declare-fun _Glue8 (Heap Addr Addr Int Addr HeapObject) Bool)
(declare-fun _Glue12 (Addr Int Addr Addr Heap HeapObject) Bool)
(declare-fun _Glue16 (Heap Addr Addr Int Addr HeapObject) Bool)
(declare-fun _Glue3 (Addr Int Addr Addr Heap HeapObject) Bool)
(declare-fun inv_main537_3 (Heap Int Addr Addr) Bool)
(declare-fun inv_main_27 (Heap Int Addr) Bool)
(declare-fun inv_main_3 (Heap Int Addr Addr) Bool)
(assert (forall ((var0 HeapObject) (var1 node) (var2 Int) (var3 Heap) (var4 Addr) (var5 Addr)) (or (not (and (and (Inv_Heap_exp_exp var5 1 var4) (inv_main_27 var3 (+ var2 (- 1)) var5)) (and (and (and (= (O_node var1) var0) (= (node 1 var4) var1)) (= (read var3 var5) var0)) (valid var3 var5)))) (inv_main_27 var3 var2 var4))))
(assert (forall ((var0 Addr) (var1 node) (var2 HeapObject) (var3 Addr) (var4 Int) (var5 Heap)) (or (not (and (inv_main_27 var5 (+ var4 (- 1)) var3) (and (and (and (and (= (read var5 var3) var2) (= (getnode var2) var1)) (= (|node::h| var1) 1)) (= (|node::n| var1) var0)) (not (valid var5 var3))))) (inv_main_27 var5 var4 var0))))
(assert (forall ((var0 Addr) (var1 HeapObject) (var2 node) (var3 Addr) (var4 Int) (var5 Heap) (var6 Addr) (var7 Int) (var8 Addr)) (or (not (and (and (Inv_Heap_exp_exp var8 var7 var6) (inv_main_3 var5 var4 var3 var8)) (and (and (and (= (O_node var2) var1) (= (node var7 var6) var2)) (= (read var5 var8) var1)) (valid var5 var8)))) (_Glue6 var0 var3 var4 var5 var8 var1))))
(assert (forall ((var0 Addr) (var1 HeapObject) (var2 Addr) (var3 Addr) (var4 Int) (var5 Heap)) (or (not (and (inv_main_3 var5 var4 var3 var2) (and (= (read var5 var2) var1) (not (valid var5 var2))))) (_Glue6 var0 var3 var4 var5 var2 var1))))
(assert (forall ((var0 Int) (var1 Addr) (var2 node) (var3 HeapObject) (var4 Addr) (var5 Heap) (var6 Int) (var7 Addr) (var8 Addr)) (or (not (and (_Glue6 var8 var7 var6 var5 var4 var3) (and (and (and (= (getnode var3) var2) (= (|node::n| var2) var1)) (valid var5 var4)) (= var0 3)))) (Inv_Heap_exp_exp var4 var0 var1))))
(assert (forall ((var0 node) (var1 Heap) (var2 HeapObject) (var3 node) (var4 Addr) (var5 HeapObject) (var6 node) (var7 HeapObject) (var8 Heap) (var9 Int) (var10 Addr) (var11 Addr) (var12 Addr) (var13 Int) (var14 Addr)) (or (not (and (and (Inv_Heap_exp_exp var14 var13 var12) (_Glue6 var11 var10 var9 var8 var14 var7)) (and (and (and (and (and (and (and (and (= (O_node var6) var5) (= (node 3 var4) var3)) (= (O_node var3) var2)) (= (node var13 var12) var6)) (= (read var1 var14) var5)) (valid var1 var14)) (= (getnode var7) var0)) (= (|node::n| var0) var4)) (= (write var8 var14 var2) var1)))) (_Glue8 var1 var11 var10 var9 var14 var5))))
(assert (forall ((var0 HeapObject) (var1 node) (var2 Addr) (var3 node) (var4 HeapObject) (var5 Heap) (var6 HeapObject) (var7 Addr) (var8 Heap) (var9 Int) (var10 Addr) (var11 Addr)) (or (not (and (_Glue6 var11 var10 var9 var8 var7 var6) (and (and (and (and (and (and (= (read var5 var7) var4) (not (valid var5 var7))) (= (getnode var6) var3)) (= (|node::n| var3) var2)) (= (node 3 var2) var1)) (= (O_node var1) var0)) (= (write var8 var7 var0) var5)))) (_Glue8 var5 var11 var10 var9 var7 var4))))
(assert (forall ((var0 Addr) (var1 Int) (var2 node) (var3 HeapObject) (var4 Addr) (var5 Int) (var6 Addr) (var7 Heap)) (or (not (and (_Glue8 var7 var6 var6 var5 var4 var3) (and (and (and (and (= (getnode var3) var2) (= (|node::h| var2) var1)) (not (<= 0 (+ (+ 10 (* (- 1) var5)) (- 1))))) (valid var7 var4)) (= var0 0)))) (Inv_Heap_exp_exp var4 var1 var0))))
(assert (forall ((var0 Int) (var1 Heap) (var2 HeapObject) (var3 node) (var4 Int) (var5 node) (var6 HeapObject) (var7 Addr) (var8 Int) (var9 Addr) (var10 Heap)) (or (not (and (_Glue8 var10 var9 var9 var8 var7 var6) (and (and (and (and (and (and (= (getnode var6) var5) (= (|node::h| var5) var4)) (= (node var4 0) var3)) (= (O_node var3) var2)) (= (write var10 var7 var2) var1)) (not (<= 0 (+ (+ 10 (* (- 1) var8)) (- 1))))) (= var0 0)))) (inv_main_27 var1 var0 var9))))
(assert (forall ((var0 HeapObject) (var1 node) (var2 Int) (var3 Int) (var4 Heap) (var5 Addr) (var6 Int) (var7 Addr)) (not (and (and (Inv_Heap_exp_exp var7 var6 var5) (inv_main_28 var4 var3 var2 var7)) (and (and (and (and (and (not (= var6 3)) (not (= var6 2))) (= (O_node var1) var0)) (= (node var6 var5) var1)) (= (read var4 var7) var0)) (valid var4 var7))))))
(assert (forall ((var0 HeapObject) (var1 node) (var2 Int) (var3 Int) (var4 Heap) (var5 Addr) (var6 Int) (var7 Addr)) (not (and (and (Inv_Heap_exp_exp var7 var6 var5) (inv_main_28 var4 var3 var2 var7)) (and (and (and (and (and (not (= var6 2)) (<= 0 (+ (+ (* (- 1) var2) (* (- 1) var3)) 19))) (= (O_node var1) var0)) (= (node var6 var5) var1)) (= (read var4 var7) var0)) (valid var4 var7))))))
(assert (forall ((var0 node) (var1 HeapObject) (var2 Int) (var3 Addr) (var4 Int) (var5 Int) (var6 Heap)) (not (and (inv_main_28 var6 var5 var4 var3) (and (and (and (and (and (not (= var2 3)) (not (= var2 2))) (= (read var6 var3) var1)) (= (getnode var1) var0)) (= (|node::h| var0) var2)) (not (valid var6 var3)))))))
(assert (forall ((var0 node) (var1 HeapObject) (var2 Int) (var3 Addr) (var4 Int) (var5 Int) (var6 Heap)) (not (and (inv_main_28 var6 var5 var4 var3) (and (and (and (and (and (not (= var2 2)) (<= 0 (+ (+ (* (- 1) var4) (* (- 1) var5)) 19))) (= (read var6 var3) var1)) (= (getnode var1) var0)) (= (|node::h| var0) var2)) (not (valid var6 var3)))))))
(assert (forall ((var0 Int) (var1 Addr) (var2 Addr) (var3 Int) (var4 Heap)) (or (not (and (inv_main537_3 var4 var3 var2 var1) (and (<= 0 (+ (+ 10 (* (- 1) var3)) (- 1))) (= var0 0)))) (inv_main_3 var4 var0 var2 var1))))
(assert (forall ((var0 Addr) (var1 HeapObject) (var2 node) (var3 Addr) (var4 Int) (var5 Heap) (var6 Addr) (var7 Int) (var8 Addr)) (or (not (and (and (Inv_Heap_exp_exp var8 var7 var6) (inv_main_3 var5 var4 var3 var8)) (and (and (and (= (O_node var2) var1) (= (node var7 var6) var2)) (= (read var5 var8) var1)) (valid var5 var8)))) (_Glue14 var0 var3 var4 var5 var8 var1))))
(assert (forall ((var0 Addr) (var1 HeapObject) (var2 Addr) (var3 Addr) (var4 Int) (var5 Heap)) (or (not (and (inv_main_3 var5 var4 var3 var2) (and (= (read var5 var2) var1) (not (valid var5 var2))))) (_Glue14 var0 var3 var4 var5 var2 var1))))
(assert (forall ((var0 Int) (var1 Addr) (var2 node) (var3 HeapObject) (var4 Addr) (var5 Heap) (var6 Int) (var7 Addr) (var8 Addr)) (or (not (and (_Glue14 var8 var7 var6 var5 var4 var3) (and (and (and (= (getnode var3) var2) (= (|node::n| var2) var1)) (valid var5 var4)) (= var0 3)))) (Inv_Heap_exp_exp var4 var0 var1))))
(assert (forall ((var0 node) (var1 Heap) (var2 HeapObject) (var3 node) (var4 Addr) (var5 HeapObject) (var6 node) (var7 HeapObject) (var8 Heap) (var9 Int) (var10 Addr) (var11 Addr) (var12 Addr) (var13 Int) (var14 Addr)) (or (not (and (and (Inv_Heap_exp_exp var14 var13 var12) (_Glue14 var11 var10 var9 var8 var14 var7)) (and (and (and (and (and (and (and (and (= (O_node var6) var5) (= (node 3 var4) var3)) (= (O_node var3) var2)) (= (node var13 var12) var6)) (= (read var1 var14) var5)) (valid var1 var14)) (= (getnode var7) var0)) (= (|node::n| var0) var4)) (= (write var8 var14 var2) var1)))) (_Glue16 var1 var11 var10 var9 var14 var5))))
(assert (forall ((var0 HeapObject) (var1 node) (var2 Addr) (var3 node) (var4 HeapObject) (var5 Heap) (var6 HeapObject) (var7 Addr) (var8 Heap) (var9 Int) (var10 Addr) (var11 Addr)) (or (not (and (_Glue14 var11 var10 var9 var8 var7 var6) (and (and (and (and (and (and (= (read var5 var7) var4) (not (valid var5 var7))) (= (getnode var6) var3)) (= (|node::n| var3) var2)) (= (node 3 var2) var1)) (= (O_node var1) var0)) (= (write var8 var7 var0) var5)))) (_Glue16 var5 var11 var10 var9 var7 var4))))
(assert (forall ((var0 Addr) (var1 Int) (var2 node) (var3 HeapObject) (var4 Addr) (var5 Int) (var6 Addr) (var7 Heap)) (or (not (and (_Glue16 var7 var6 var6 var5 var4 var3) (and (and (and (and (= (getnode var3) var2) (= (|node::h| var2) var1)) (<= 0 (+ (+ 10 (* (- 1) var5)) (- 1)))) (valid var7 var4)) (= var0 0)))) (Inv_Heap_exp_exp var4 var1 var0))))
(assert (forall ((var0 Int) (var1 Heap) (var2 HeapObject) (var3 node) (var4 Int) (var5 node) (var6 HeapObject) (var7 Addr) (var8 Int) (var9 Addr) (var10 Heap)) (or (not (and (_Glue16 var10 var9 var9 var8 var7 var6) (and (and (and (and (and (and (= (getnode var6) var5) (= (|node::h| var5) var4)) (= (node var4 0) var3)) (= (O_node var3) var2)) (= (write var10 var7 var2) var1)) (<= 0 (+ (+ 10 (* (- 1) var8)) (- 1)))) (= var0 0)))) (inv_main_27 var1 var0 var9))))
(assert (forall ((var0 HeapObject) (var1 node) (var2 Int) (var3 Int) (var4 Heap) (var5 Addr) (var6 Addr)) (or (not (and (and (Inv_Heap_exp_exp var6 2 var5) (inv_main_28 var4 var3 (+ var2 (- 1)) var6)) (and (and (and (= (O_node var1) var0) (= (node 2 var5) var1)) (= (read var4 var6) var0)) (valid var4 var6)))) (inv_main_28 var4 var3 var2 var5))))
(assert (forall ((var0 Addr) (var1 node) (var2 HeapObject) (var3 Addr) (var4 Int) (var5 Int) (var6 Heap)) (or (not (and (inv_main_28 var6 var5 (+ var4 (- 1)) var3) (and (and (and (and (= (read var6 var3) var2) (= (getnode var2) var1)) (= (|node::h| var1) 2)) (= (|node::n| var1) var0)) (not (valid var6 var3))))) (inv_main_28 var6 var5 var4 var0))))
(assert (forall ((var0 Int) (var1 HeapObject) (var2 node) (var3 Int) (var4 Heap) (var5 Addr) (var6 Int) (var7 Addr)) (or (not (and (and (Inv_Heap_exp_exp var7 var6 var5) (inv_main_27 var4 var3 var7)) (and (and (and (and (and (= (O_node var2) var1) (= (node var6 var5) var2)) (not (= var6 1))) (= (read var4 var7) var1)) (valid var4 var7)) (= var0 0)))) (inv_main_28 var4 var3 var0 var7))))
(assert (forall ((var0 Int) (var1 node) (var2 HeapObject) (var3 Int) (var4 Addr) (var5 Int) (var6 Heap)) (or (not (and (inv_main_27 var6 var5 var4) (and (and (and (and (and (not (= var3 1)) (= (read var6 var4) var2)) (= (getnode var2) var1)) (= (|node::h| var1) var3)) (not (valid var6 var4))) (= var0 0)))) (inv_main_28 var6 var5 var0 var4))))
(assert (forall ((var0 Addr) (var1 Int) (var2 Addr) (var3 HeapObject) (var4 node) (var5 Addr) (var6 Int) (var7 Heap) (var8 Addr) (var9 Int) (var10 Addr)) (or (not (and (and (Inv_Heap_exp_exp var10 var9 var8) (inv_main537_3 var7 (+ var6 (- 1)) var5 var10)) (and (and (and (and (= (O_node var4) var3) (= (node var9 var8) var4)) (= nullAddr var2)) (= (read var7 var10) var3)) (valid var7 var10)))) (_Glue0_exp_exp var2 var1 var0 var5 var6 var7 var10 var3))))
(assert (forall ((var0 Addr) (var1 Int) (var2 HeapObject) (var3 Addr) (var4 Addr) (var5 Addr) (var6 Int) (var7 Heap)) (or (not (and (inv_main537_3 var7 (+ var6 (- 1)) var5 var4) (and (and (= nullAddr var3) (= (read var7 var4) var2)) (not (valid var7 var4))))) (_Glue0_exp_exp var3 var1 var0 var5 var6 var7 var4 var2))))
(assert (forall ((var0 Int) (var1 Addr) (var2 node) (var3 HeapObject) (var4 Addr) (var5 Heap) (var6 Int) (var7 Addr) (var8 Addr) (var9 Int) (var10 Addr)) (or (not (and (_Glue0_exp_exp var10 var9 var8 var7 var6 var5 var4 var3) (and (and (and (= (getnode var3) var2) (= (|node::n| var2) var1)) (valid var5 var4)) (= var0 1)))) (Inv_Heap_exp_exp var4 var0 var1))))
(assert (forall ((var0 node) (var1 AllocResHeap) (var2 Heap) (var3 HeapObject) (var4 node) (var5 Addr) (var6 HeapObject) (var7 node) (var8 HeapObject) (var9 Addr) (var10 Heap) (var11 Int) (var12 Addr) (var13 Addr) (var14 Int) (var15 Addr)) (or (not (and (_Glue0_exp_exp var15 var14 var13 var12 var11 var10 var9 var8) (and (and (and (and (and (and (and (= (O_node var7) var6) (= (node 1 var5) var4)) (= (O_node var4) var3)) (= (node var14 var13) var7)) (= (alloc var2 var6) var1)) (= (getnode var8) var0)) (= (|node::n| var0) var5)) (= (write var10 var9 var3) var2)))) (Inv_Heap_exp_exp (newAddr var1) var14 var13))))
(assert (forall ((var0 node) (var1 Heap) (var2 HeapObject) (var3 node) (var4 Addr) (var5 HeapObject) (var6 node) (var7 AllocResHeap) (var8 Addr) (var9 Heap) (var10 HeapObject) (var11 node) (var12 HeapObject) (var13 Heap) (var14 Int) (var15 Addr) (var16 Addr) (var17 Int) (var18 Addr) (var19 Addr) (var20 Int) (var21 Addr)) (or (not (and (and (Inv_Heap_exp_exp var21 var20 var19) (_Glue0_exp_exp var18 var17 var16 var15 var14 var13 var21 var12)) (and (and (and (and (and (and (and (and (and (and (and (and (and (= (O_node var11) var10) (= (AllocResHeap var9 var8) var7)) (= (O_node var6) var5)) (= (node 1 var4) var3)) (= (O_node var3) var2)) (= (node var20 var19) var11)) (= (node var17 var16) var6)) (not (= var8 var18))) (= (read var9 var21) var10)) (valid var9 var21)) (= (alloc var1 var5) var7)) (= (getnode var12) var0)) (= (|node::n| var0) var4)) (= (write var13 var21 var2) var1)))) (_Glue3 var21 var14 var15 var8 var9 var10))))
(assert (forall ((var0 node) (var1 Heap) (var2 HeapObject) (var3 HeapObject) (var4 node) (var5 Addr) (var6 HeapObject) (var7 node) (var8 AllocResHeap) (var9 Addr) (var10 Heap) (var11 HeapObject) (var12 Addr) (var13 Heap) (var14 Int) (var15 Addr) (var16 Addr) (var17 Int) (var18 Addr)) (or (not (and (_Glue0_exp_exp var18 var17 var16 var15 var14 var13 var12 var11) (and (and (and (and (and (and (and (and (and (and (and (= (AllocResHeap var10 var9) var8) (= (O_node var7) var6)) (= (node 1 var5) var4)) (= (O_node var4) var3)) (= (node var17 var16) var7)) (not (= var9 var18))) (= (read var10 var12) var2)) (not (valid var10 var12))) (= (alloc var1 var6) var8)) (= (getnode var11) var0)) (= (|node::n| var0) var5)) (= (write var13 var12 var3) var1)))) (_Glue3 var12 var14 var15 var9 var10 var2))))
(assert (forall ((var0 Int) (var1 node) (var2 HeapObject) (var3 Heap) (var4 Addr) (var5 Addr) (var6 Int) (var7 Addr)) (or (not (and (_Glue3 var7 var6 var5 var4 var3 var2) (and (and (= (getnode var2) var1) (= (|node::h| var1) var0)) (valid var3 var7)))) (Inv_Heap_exp_exp var7 var0 var4))))
(assert (forall ((var0 node) (var1 Heap) (var2 HeapObject) (var3 node) (var4 Int) (var5 HeapObject) (var6 node) (var7 HeapObject) (var8 Heap) (var9 Addr) (var10 Addr) (var11 Int) (var12 Addr) (var13 Int) (var14 Addr)) (or (not (and (and (Inv_Heap_exp_exp var14 var13 var12) (_Glue3 var14 var11 var10 var9 var8 var7)) (and (and (and (and (and (and (and (and (and (= (O_node var6) var5) (= (node var4 var9) var3)) (= (O_node var3) var2)) (= (node var13 var12) var6)) (= (read var1 var14) var5)) (<= 0 (+ (+ 10 (* (- 1) (+ var11 (- 1)))) (- 1)))) (valid var1 var14)) (= (getnode var7) var0)) (= (|node::h| var0) var4)) (= (write var8 var14 var2) var1)))) (inv_main537_3 var1 var11 var10 var12))))
(assert (forall ((var0 HeapObject) (var1 node) (var2 Int) (var3 node) (var4 Addr) (var5 node) (var6 HeapObject) (var7 Heap) (var8 HeapObject) (var9 Heap) (var10 Addr) (var11 Addr) (var12 Int) (var13 Addr)) (or (not (and (_Glue3 var13 var12 var11 var10 var9 var8) (and (and (and (and (and (and (and (and (and (= (read var7 var13) var6) (= (getnode var6) var5)) (= (|node::n| var5) var4)) (<= 0 (+ (+ 10 (* (- 1) (+ var12 (- 1)))) (- 1)))) (not (valid var7 var13))) (= (getnode var8) var3)) (= (|node::h| var3) var2)) (= (node var2 var10) var1)) (= (O_node var1) var0)) (= (write var9 var13 var0) var7)))) (inv_main537_3 var7 var12 var11 var4))))
(assert (forall ((var0 Int) (var1 Addr) (var2 Addr) (var3 Int) (var4 Heap)) (or (not (and (inv_main537_3 var4 var3 var2 var1) (and (not (<= 0 (+ (+ 10 (* (- 1) var3)) (- 1)))) (= var0 0)))) (inv_main_3 var4 var0 var2 var1))))
(assert (forall ((var0 Addr) (var1 Addr) (var2 AllocResHeap) (var3 Heap) (var4 Addr) (var5 Int) (var6 HeapObject) (var7 node)) (or (not (and (and (and (and (and (and (= (O_node var7) var6) (= (node var5 var4) var7)) (= (alloc var3 var6) var2)) (= (newAddr var2) var1)) (not (= var1 var0))) (= nullAddr var0)) (= emptyHeap var3))) (Inv_Heap_exp_exp (newAddr var2) var5 var4))))
(assert (forall ((var0 Int) (var1 Addr) (var2 Addr) (var3 Addr) (var4 Heap) (var5 AllocResHeap) (var6 Heap) (var7 HeapObject) (var8 node)) (or (not (and (and (and (and (and (and (and (and (= (O_node var8) var7) (= (alloc var6 var7) var5)) (= (newHeap var5) var4)) (= (newAddr var5) var3)) (not (= var3 var2))) (= nullAddr var2)) (= emptyHeap var6)) (= var1 var3)) (= var0 0))) (inv_main537_3 var4 var0 var1 var3))))
(assert (forall ((var0 Addr) (var1 Int) (var2 Addr) (var3 HeapObject) (var4 node) (var5 Addr) (var6 Int) (var7 Heap) (var8 Addr) (var9 Int) (var10 Addr)) (or (not (and (and (Inv_Heap_exp_exp var10 var9 var8) (inv_main_3 var7 (+ var6 (- 1)) var5 var10)) (and (and (and (and (= (O_node var4) var3) (= (node var9 var8) var4)) (= nullAddr var2)) (= (read var7 var10) var3)) (valid var7 var10)))) (_Glue9_exp_exp var2 var1 var0 var5 var6 var7 var10 var3))))
(assert (forall ((var0 Addr) (var1 Int) (var2 HeapObject) (var3 Addr) (var4 Addr) (var5 Addr) (var6 Int) (var7 Heap)) (or (not (and (inv_main_3 var7 (+ var6 (- 1)) var5 var4) (and (and (= nullAddr var3) (= (read var7 var4) var2)) (not (valid var7 var4))))) (_Glue9_exp_exp var3 var1 var0 var5 var6 var7 var4 var2))))
(assert (forall ((var0 Int) (var1 Addr) (var2 node) (var3 HeapObject) (var4 Addr) (var5 Heap) (var6 Int) (var7 Addr) (var8 Addr) (var9 Int) (var10 Addr)) (or (not (and (_Glue9_exp_exp var10 var9 var8 var7 var6 var5 var4 var3) (and (and (and (= (getnode var3) var2) (= (|node::n| var2) var1)) (valid var5 var4)) (= var0 2)))) (Inv_Heap_exp_exp var4 var0 var1))))
(assert (forall ((var0 node) (var1 AllocResHeap) (var2 Heap) (var3 HeapObject) (var4 node) (var5 Addr) (var6 HeapObject) (var7 node) (var8 HeapObject) (var9 Addr) (var10 Heap) (var11 Int) (var12 Addr) (var13 Addr) (var14 Int) (var15 Addr)) (or (not (and (_Glue9_exp_exp var15 var14 var13 var12 var11 var10 var9 var8) (and (and (and (and (and (and (and (= (O_node var7) var6) (= (node 2 var5) var4)) (= (O_node var4) var3)) (= (node var14 var13) var7)) (= (alloc var2 var6) var1)) (= (getnode var8) var0)) (= (|node::n| var0) var5)) (= (write var10 var9 var3) var2)))) (Inv_Heap_exp_exp (newAddr var1) var14 var13))))
(assert (forall ((var0 node) (var1 Heap) (var2 HeapObject) (var3 node) (var4 Addr) (var5 HeapObject) (var6 node) (var7 AllocResHeap) (var8 Addr) (var9 Heap) (var10 HeapObject) (var11 node) (var12 HeapObject) (var13 Heap) (var14 Int) (var15 Addr) (var16 Addr) (var17 Int) (var18 Addr) (var19 Addr) (var20 Int) (var21 Addr)) (or (not (and (and (Inv_Heap_exp_exp var21 var20 var19) (_Glue9_exp_exp var18 var17 var16 var15 var14 var13 var21 var12)) (and (and (and (and (and (and (and (and (and (and (and (and (and (= (O_node var11) var10) (= (AllocResHeap var9 var8) var7)) (= (O_node var6) var5)) (= (node 2 var4) var3)) (= (O_node var3) var2)) (= (node var20 var19) var11)) (= (node var17 var16) var6)) (not (= var8 var18))) (= (read var9 var21) var10)) (valid var9 var21)) (= (alloc var1 var5) var7)) (= (getnode var12) var0)) (= (|node::n| var0) var4)) (= (write var13 var21 var2) var1)))) (_Glue12 var21 var14 var15 var8 var9 var10))))
(assert (forall ((var0 node) (var1 Heap) (var2 HeapObject) (var3 HeapObject) (var4 node) (var5 Addr) (var6 HeapObject) (var7 node) (var8 AllocResHeap) (var9 Addr) (var10 Heap) (var11 HeapObject) (var12 Addr) (var13 Heap) (var14 Int) (var15 Addr) (var16 Addr) (var17 Int) (var18 Addr)) (or (not (and (_Glue9_exp_exp var18 var17 var16 var15 var14 var13 var12 var11) (and (and (and (and (and (and (and (and (and (and (and (= (AllocResHeap var10 var9) var8) (= (O_node var7) var6)) (= (node 2 var5) var4)) (= (O_node var4) var3)) (= (node var17 var16) var7)) (not (= var9 var18))) (= (read var10 var12) var2)) (not (valid var10 var12))) (= (alloc var1 var6) var8)) (= (getnode var11) var0)) (= (|node::n| var0) var5)) (= (write var13 var12 var3) var1)))) (_Glue12 var12 var14 var15 var9 var10 var2))))
(assert (forall ((var0 Int) (var1 node) (var2 HeapObject) (var3 Heap) (var4 Addr) (var5 Addr) (var6 Int) (var7 Addr)) (or (not (and (_Glue12 var7 var6 var5 var4 var3 var2) (and (and (= (getnode var2) var1) (= (|node::h| var1) var0)) (valid var3 var7)))) (Inv_Heap_exp_exp var7 var0 var4))))
(assert (forall ((var0 node) (var1 Heap) (var2 HeapObject) (var3 node) (var4 Int) (var5 HeapObject) (var6 node) (var7 HeapObject) (var8 Heap) (var9 Addr) (var10 Addr) (var11 Int) (var12 Addr) (var13 Int) (var14 Addr)) (or (not (and (and (Inv_Heap_exp_exp var14 var13 var12) (_Glue12 var14 var11 var10 var9 var8 var7)) (and (and (and (and (and (and (and (and (and (= (O_node var6) var5) (= (node var4 var9) var3)) (= (O_node var3) var2)) (= (node var13 var12) var6)) (= (read var1 var14) var5)) (<= 0 (+ (+ 10 (* (- 1) (+ var11 (- 1)))) (- 1)))) (valid var1 var14)) (= (getnode var7) var0)) (= (|node::h| var0) var4)) (= (write var8 var14 var2) var1)))) (inv_main_3 var1 var11 var10 var12))))
(assert (forall ((var0 HeapObject) (var1 node) (var2 Int) (var3 node) (var4 Addr) (var5 node) (var6 HeapObject) (var7 Heap) (var8 HeapObject) (var9 Heap) (var10 Addr) (var11 Addr) (var12 Int) (var13 Addr)) (or (not (and (_Glue12 var13 var12 var11 var10 var9 var8) (and (and (and (and (and (and (and (and (and (= (read var7 var13) var6) (= (getnode var6) var5)) (= (|node::n| var5) var4)) (<= 0 (+ (+ 10 (* (- 1) (+ var12 (- 1)))) (- 1)))) (not (valid var7 var13))) (= (getnode var8) var3)) (= (|node::h| var3) var2)) (= (node var2 var10) var1)) (= (O_node var1) var0)) (= (write var9 var13 var0) var7)))) (inv_main_3 var7 var12 var11 var4))))
(check-sat)
